3 10
108 123 114 
0 59 60 70 79 102 97 77 25 68 95 12 57 2
1 97 97 23 31 70 74 63 84 38 44 47 74 3
2 6 7 76 85 53 56 63 62 85 66 80 2 1
3 41 48 1 2 57 49 81 86 50 87 57 78 3
4 61 53 99 95 53 46 57 22 48 23 61 57 3
5 87 82 42 37 89 83 59 3 61 24 9 80 1
6 65 70 86 96 28 23 10 72 47 23 51 47 1
7 84 76 24 15 54 53 55 84 59 62 23 88 3
8 24 26 109 100 65 67 99 60 37 39 64 24 1
9 30 23 81 77 16 24 49 80 47 93 26 11 3
